problems/csplib-prob015/SchursLemma-models/noch/O2/lingeling/model_1_4-4-18-solution000001.solution
language Essence 1.3

letting boxes be partition({1, 4, 7, 10, 15}, {2, 5, 6, 9, 12, 13, 16}, {3, 8, 14, 18}, {11, 17})
